100 500 200 500 10 100
86 209
71 480
85 409
35 403
99 320
53 240
68 403
34 246
35 300
84 298
60 295
47 500
92 466
39 407
89 331
29 438
95 340
65 398
87 330
85 308
82 478
91 451
75 433
91 240
62 493
60 467
57 415
76 400
100 407
52 281
75 257
25 275
78 385
11 395
33 471
12 414
77 300
70 477
33 260
13 214
88 252
23 238
78 345
47 494
56 442
64 487
22 242
53 345
77 433
17 340
57 241
31 300
28 368
91 323
14 241
53 429
37 267
54 459
18 302
81 412
96 476
11 492
41 408
24 292
25 375
70 493
58 435
75 456
45 267
81 479
76 365
58 300
53 272
71 241
18 410
95 367
49 299
92 301
68 443
50 296
54 222
72 432
64 279
79 458
28 415
11 403
83 242
59 359
78 461
12 387
34 302
70 203
56 361
16 307
29 395
60 370
83 390
76 324
84 438
62 314
